p cnf 1260 2841
1 2 0
3 2 0
4 2 0
5 2 0
6 2 0
7 2 0
8 2 0
9 2 0
10 2 0
11 2 0
-12 0
2 -13 -14 0
13 -2 -14 0
14 -2 -13 0
13 2 14 0
-14 0
3 15 0
4 15 0
5 15 0
6 15 0
7 15 0
8 15 0
9 15 0
10 15 0
11 15 0
-16 0
15 -17 -18 0
17 -15 -18 0
18 -15 -17 0
17 15 18 0
-18 0
4 19 0
5 19 0
6 19 0
7 19 0
8 19 0
9 19 0
10 19 0
11 19 0
-20 0
19 -21 -22 0
21 -19 -22 0
22 -19 -21 0
21 19 22 0
-22 0
5 23 0
6 23 0
7 23 0
8 23 0
9 23 0
10 23 0
11 23 0
-24 0
23 -25 -26 0
25 -23 -26 0
26 -23 -25 0
25 23 26 0
-26 0
6 27 0
7 27 0
8 27 0
9 27 0
10 27 0
11 27 0
-28 0
27 -29 -30 0
29 -27 -30 0
30 -27 -29 0
29 27 30 0
-30 0
27 -31 -32 0
31 -27 -32 0
32 -27 -31 0
31 27 32 0
-32 0
27 -33 -34 0
33 -27 -34 0
34 -27 -33 0
33 27 34 0
-34 0
27 -35 -36 0
35 -27 -36 0
36 -27 -35 0
35 27 36 0
-36 0
27 -37 -38 0
37 -27 -38 0
38 -27 -37 0
37 27 38 0
-38 0
27 -39 -40 0
39 -27 -40 0
40 -27 -39 0
39 27 40 0
-40 0
41 42 0
43 42 0
44 42 0
45 42 0
46 42 0
47 42 0
48 42 0
49 42 0
50 42 0
51 42 0
52 42 0
-53 0
42 -54 -55 0
54 -42 -55 0
55 -42 -54 0
54 42 55 0
-55 0
43 56 0
44 56 0
45 56 0
46 56 0
47 56 0
48 56 0
49 56 0
50 56 0
51 56 0
52 56 0
-57 0
56 -58 -59 0
58 -56 -59 0
59 -56 -58 0
58 56 59 0
-59 0
44 60 0
45 60 0
46 60 0
47 60 0
48 60 0
49 60 0
50 60 0
51 60 0
52 60 0
-61 0
60 -62 -63 0
62 -60 -63 0
63 -60 -62 0
62 60 63 0
-63 0
45 64 0
46 64 0
47 64 0
48 64 0
49 64 0
50 64 0
51 64 0
52 64 0
-65 0
64 -66 -67 0
66 -64 -67 0
67 -64 -66 0
66 64 67 0
-67 0
46 68 0
47 68 0
48 68 0
49 68 0
50 68 0
51 68 0
52 68 0
-69 0
68 -70 -71 0
70 -68 -71 0
71 -68 -70 0
70 68 71 0
-71 0
47 72 0
48 72 0
49 72 0
50 72 0
51 72 0
52 72 0
-73 0
72 -74 -75 0
74 -72 -75 0
75 -72 -74 0
74 72 75 0
-75 0
72 -76 -77 0
76 -72 -77 0
77 -72 -76 0
76 72 77 0
-77 0
72 -78 -79 0
78 -72 -79 0
79 -72 -78 0
78 72 79 0
-79 0
72 -80 -81 0
80 -72 -81 0
81 -72 -80 0
80 72 81 0
-81 0
72 -82 -83 0
82 -72 -83 0
83 -72 -82 0
82 72 83 0
-83 0
72 -84 -85 0
84 -72 -85 0
85 -72 -84 0
84 72 85 0
-85 0
86 87 0
88 87 0
89 87 0
90 87 0
91 87 0
92 87 0
93 87 0
-94 0
87 -95 -96 0
95 -87 -96 0
96 -87 -95 0
95 87 96 0
-96 0
88 97 0
89 97 0
90 97 0
91 97 0
92 97 0
93 97 0
-98 0
97 -99 -100 0
99 -97 -100 0
100 -97 -99 0
99 97 100 0
-100 0
89 101 0
90 101 0
91 101 0
92 101 0
93 101 0
-102 0
101 -103 -104 0
103 -101 -104 0
104 -101 -103 0
103 101 104 0
-104 0
90 105 0
91 105 0
92 105 0
93 105 0
-106 0
105 -107 -108 0
107 -105 -108 0
108 -105 -107 0
107 105 108 0
-108 0
105 -109 -110 0
109 -105 -110 0
110 -105 -109 0
109 105 110 0
-110 0
105 -111 -112 0
111 -105 -112 0
112 -105 -111 0
111 105 112 0
-112 0
105 -113 -114 0
113 -105 -114 0
114 -105 -113 0
113 105 114 0
-114 0
115 116 0
117 116 0
118 116 0
119 116 0
120 116 0
121 116 0
122 116 0
123 116 0
124 116 0
125 116 0
-126 0
116 -127 -128 0
127 -116 -128 0
128 -116 -127 0
127 116 128 0
-128 0
117 129 0
118 129 0
119 129 0
120 129 0
121 129 0
122 129 0
123 129 0
124 129 0
125 129 0
-130 0
129 -131 -132 0
131 -129 -132 0
132 -129 -131 0
131 129 132 0
-132 0
118 133 0
119 133 0
120 133 0
121 133 0
122 133 0
123 133 0
124 133 0
125 133 0
-134 0
133 -135 -136 0
135 -133 -136 0
136 -133 -135 0
135 133 136 0
-136 0
119 137 0
120 137 0
121 137 0
122 137 0
123 137 0
124 137 0
125 137 0
-138 0
137 -139 -140 0
139 -137 -140 0
140 -137 -139 0
139 137 140 0
-140 0
120 141 0
121 141 0
122 141 0
123 141 0
124 141 0
125 141 0
-142 0
141 -143 -144 0
143 -141 -144 0
144 -141 -143 0
143 141 144 0
-144 0
121 145 0
122 145 0
123 145 0
124 145 0
125 145 0
-146 0
145 -147 -148 0
147 -145 -148 0
148 -145 -147 0
147 145 148 0
-148 0
145 -149 -150 0
149 -145 -150 0
150 -145 -149 0
149 145 150 0
-150 0
145 -151 -152 0
151 -145 -152 0
152 -145 -151 0
151 145 152 0
-152 0
145 -153 -154 0
153 -145 -154 0
154 -145 -153 0
153 145 154 0
-154 0
145 -155 -156 0
155 -145 -156 0
156 -145 -155 0
155 145 156 0
-156 0
157 158 0
159 158 0
160 158 0
161 158 0
162 158 0
163 158 0
164 158 0
165 158 0
166 158 0
167 158 0
-168 0
158 -169 -170 0
169 -158 -170 0
170 -158 -169 0
169 158 170 0
-170 0
159 171 0
160 171 0
161 171 0
162 171 0
163 171 0
164 171 0
165 171 0
166 171 0
167 171 0
-172 0
171 -173 -174 0
173 -171 -174 0
174 -171 -173 0
173 171 174 0
-174 0
160 175 0
161 175 0
162 175 0
163 175 0
164 175 0
165 175 0
166 175 0
167 175 0
-176 0
175 -177 -178 0
177 -175 -178 0
178 -175 -177 0
177 175 178 0
-178 0
161 179 0
162 179 0
163 179 0
164 179 0
165 179 0
166 179 0
167 179 0
-180 0
179 -181 -182 0
181 -179 -182 0
182 -179 -181 0
181 179 182 0
-182 0
162 183 0
163 183 0
164 183 0
165 183 0
166 183 0
167 183 0
-184 0
183 -185 -186 0
185 -183 -186 0
186 -183 -185 0
185 183 186 0
-186 0
183 -187 -188 0
187 -183 -188 0
188 -183 -187 0
187 183 188 0
-188 0
183 -189 -190 0
189 -183 -190 0
190 -183 -189 0
189 183 190 0
-190 0
183 -191 -192 0
191 -183 -192 0
192 -183 -191 0
191 183 192 0
-192 0
183 -193 -194 0
193 -183 -194 0
194 -183 -193 0
193 183 194 0
-194 0
183 -195 -196 0
195 -183 -196 0
196 -183 -195 0
195 183 196 0
-196 0
197 198 0
199 198 0
200 198 0
201 198 0
202 198 0
203 198 0
204 198 0
205 198 0
206 198 0
207 198 0
-208 0
198 -209 -210 0
209 -198 -210 0
210 -198 -209 0
209 198 210 0
-210 0
199 211 0
200 211 0
201 211 0
202 211 0
203 211 0
204 211 0
205 211 0
206 211 0
207 211 0
-212 0
211 -213 -214 0
213 -211 -214 0
214 -211 -213 0
213 211 214 0
-214 0
200 215 0
201 215 0
202 215 0
203 215 0
204 215 0
205 215 0
206 215 0
207 215 0
-216 0
215 -217 -218 0
217 -215 -218 0
218 -215 -217 0
217 215 218 0
-218 0
201 219 0
202 219 0
203 219 0
204 219 0
205 219 0
206 219 0
207 219 0
-220 0
219 -221 -222 0
221 -219 -222 0
222 -219 -221 0
221 219 222 0
-222 0
202 223 0
203 223 0
204 223 0
205 223 0
206 223 0
207 223 0
-224 0
223 -225 -226 0
225 -223 -226 0
226 -223 -225 0
225 223 226 0
-226 0
203 227 0
204 227 0
205 227 0
206 227 0
207 227 0
-228 0
227 -229 -230 0
229 -227 -230 0
230 -227 -229 0
229 227 230 0
-230 0
227 -231 -232 0
231 -227 -232 0
232 -227 -231 0
231 227 232 0
-232 0
227 -233 -234 0
233 -227 -234 0
234 -227 -233 0
233 227 234 0
-234 0
227 -235 -236 0
235 -227 -236 0
236 -227 -235 0
235 227 236 0
-236 0
227 -237 -238 0
237 -227 -238 0
238 -227 -237 0
237 227 238 0
-238 0
90 239 0
91 239 0
92 239 0
93 239 0
240 239 0
241 239 0
242 239 0
243 239 0
244 239 0
-245 0
239 -246 -247 0
246 -239 -247 0
247 -239 -246 0
246 239 247 0
-247 0
90 248 0
91 248 0
92 248 0
93 248 0
241 248 0
242 248 0
243 248 0
244 248 0
-249 0
248 -250 -251 0
250 -248 -251 0
251 -248 -250 0
250 248 251 0
-251 0
90 252 0
91 252 0
92 252 0
93 252 0
242 252 0
243 252 0
244 252 0
-253 0
252 -254 -255 0
254 -252 -255 0
255 -252 -254 0
254 252 255 0
-255 0
90 256 0
91 256 0
92 256 0
93 256 0
243 256 0
244 256 0
-257 0
256 -258 -259 0
258 -256 -259 0
259 -256 -258 0
258 256 259 0
-259 0
90 260 0
91 260 0
92 260 0
93 260 0
244 260 0
-261 0
260 -262 -263 0
262 -260 -263 0
263 -260 -262 0
262 260 263 0
-263 0
6 264 0
7 264 0
8 264 0
9 264 0
10 264 0
11 264 0
265 264 0
266 264 0
267 264 0
268 264 0
269 264 0
-270 0
264 -271 -272 0
271 -264 -272 0
272 -264 -271 0
271 264 272 0
-272 0
6 273 0
7 273 0
8 273 0
9 273 0
10 273 0
11 273 0
266 273 0
267 273 0
268 273 0
269 273 0
-274 0
273 -275 -276 0
275 -273 -276 0
276 -273 -275 0
275 273 276 0
-276 0
6 277 0
7 277 0
8 277 0
9 277 0
10 277 0
11 277 0
267 277 0
268 277 0
269 277 0
-278 0
277 -279 -280 0
279 -277 -280 0
280 -277 -279 0
279 277 280 0
-280 0
6 281 0
7 281 0
8 281 0
9 281 0
10 281 0
11 281 0
268 281 0
269 281 0
-282 0
281 -283 -284 0
283 -281 -284 0
284 -281 -283 0
283 281 284 0
-284 0
6 285 0
7 285 0
8 285 0
9 285 0
10 285 0
11 285 0
269 285 0
-286 0
285 -287 -288 0
287 -285 -288 0
288 -285 -287 0
287 285 288 0
-288 0
289 290 0
291 290 0
292 290 0
293 290 0
294 290 0
295 290 0
-296 0
290 -297 -298 0
297 -290 -298 0
298 -290 -297 0
297 290 298 0
-298 0
291 299 0
292 299 0
293 299 0
294 299 0
295 299 0
-300 0
299 -301 -302 0
301 -299 -302 0
302 -299 -301 0
301 299 302 0
-302 0
292 303 0
293 303 0
294 303 0
295 303 0
-304 0
303 -305 -306 0
305 -303 -306 0
306 -303 -305 0
305 303 306 0
-306 0
293 307 0
294 307 0
295 307 0
-293 -294 -295 -307 0
307 -308 -309 0
308 -307 -309 0
309 -307 -308 0
308 307 309 0
-309 0
294 310 0
295 310 0
-294 -295 -310 0
310 -311 -312 0
311 -310 -312 0
312 -310 -311 0
311 310 312 0
-312 0
310 -313 -314 0
313 -310 -314 0
314 -310 -313 0
313 310 314 0
-314 0
162 315 0
163 315 0
164 315 0
165 315 0
166 315 0
167 315 0
316 315 0
317 315 0
318 315 0
-319 0
315 -320 -321 0
320 -315 -321 0
321 -315 -320 0
320 315 321 0
-321 0
162 322 0
163 322 0
164 322 0
165 322 0
166 322 0
167 322 0
317 322 0
318 322 0
-323 0
322 -324 -325 0
324 -322 -325 0
325 -322 -324 0
324 322 325 0
-325 0
162 326 0
163 326 0
164 326 0
165 326 0
166 326 0
167 326 0
318 326 0
-327 0
326 -328 -329 0
328 -326 -329 0
329 -326 -328 0
328 326 329 0
-329 0
330 331 0
332 331 0
333 331 0
334 331 0
335 331 0
336 331 0
337 331 0
338 331 0
339 331 0
340 331 0
-341 0
-342 331 -343 0
342 -331 -343 0
343 -331 -342 0
342 331 343 0
-343 0
332 344 0
333 344 0
334 344 0
335 344 0
336 344 0
337 344 0
338 344 0
339 344 0
340 344 0
-345 0
344 -346 -347 0
346 -344 -347 0
347 -344 -346 0
346 344 347 0
-347 0
333 348 0
334 348 0
335 348 0
336 348 0
337 348 0
338 348 0
339 348 0
340 348 0
-349 0
348 -350 -351 0
350 -348 -351 0
351 -348 -350 0
350 348 351 0
-351 0
334 352 0
335 352 0
336 352 0
337 352 0
338 352 0
339 352 0
340 352 0
-353 0
352 -354 -355 0
354 -352 -355 0
355 -352 -354 0
354 352 355 0
-355 0
335 356 0
336 356 0
337 356 0
338 356 0
339 356 0
340 356 0
-357 0
356 -358 -359 0
358 -356 -359 0
359 -356 -358 0
358 356 359 0
-359 0
356 -360 -361 0
360 -356 -361 0
361 -356 -360 0
360 356 361 0
-361 0
356 -362 -363 0
362 -356 -363 0
363 -356 -362 0
362 356 363 0
-363 0
356 -364 -365 0
364 -356 -365 0
365 -356 -364 0
364 356 365 0
-365 0
356 -366 -367 0
366 -356 -367 0
367 -356 -366 0
366 356 367 0
-367 0
356 -368 -369 0
368 -356 -369 0
369 -356 -368 0
368 356 369 0
-369 0
370 371 0
372 371 0
373 371 0
374 371 0
375 371 0
376 371 0
377 371 0
378 371 0
379 371 0
380 371 0
-381 0
-382 371 -383 0
382 -371 -383 0
383 -371 -382 0
382 371 383 0
-383 0
372 384 0
373 384 0
374 384 0
375 384 0
376 384 0
377 384 0
378 384 0
379 384 0
380 384 0
-385 0
384 -386 -387 0
386 -384 -387 0
387 -384 -386 0
386 384 387 0
-387 0
373 388 0
374 388 0
375 388 0
376 388 0
377 388 0
378 388 0
379 388 0
380 388 0
-389 0
388 -390 -391 0
390 -388 -391 0
391 -388 -390 0
390 388 391 0
-391 0
374 392 0
375 392 0
376 392 0
377 392 0
378 392 0
379 392 0
380 392 0
-393 0
392 -394 -395 0
394 -392 -395 0
395 -392 -394 0
394 392 395 0
-395 0
375 396 0
376 396 0
377 396 0
378 396 0
379 396 0
380 396 0
-397 0
396 -398 -399 0
398 -396 -399 0
399 -396 -398 0
398 396 399 0
-399 0
376 400 0
377 400 0
378 400 0
379 400 0
380 400 0
-401 0
400 -402 -403 0
402 -400 -403 0
403 -400 -402 0
402 400 403 0
-403 0
400 -404 -405 0
404 -400 -405 0
405 -400 -404 0
404 400 405 0
-405 0
400 -406 -407 0
406 -400 -407 0
407 -400 -406 0
406 400 407 0
-407 0
400 -408 -409 0
408 -400 -409 0
409 -400 -408 0
408 400 409 0
-409 0
400 -410 -411 0
410 -400 -411 0
411 -400 -410 0
410 400 411 0
-411 0
412 413 0
414 413 0
415 413 0
416 413 0
417 413 0
418 413 0
419 413 0
420 413 0
421 413 0
422 413 0
423 413 0
-424 0
-425 413 -426 0
425 -413 -426 0
426 -413 -425 0
425 413 426 0
-426 0
414 427 0
415 427 0
416 427 0
417 427 0
418 427 0
419 427 0
420 427 0
421 427 0
422 427 0
423 427 0
-428 0
427 -429 -430 0
429 -427 -430 0
430 -427 -429 0
429 427 430 0
-430 0
415 431 0
416 431 0
417 431 0
418 431 0
419 431 0
420 431 0
421 431 0
422 431 0
423 431 0
-432 0
431 -433 -434 0
433 -431 -434 0
434 -431 -433 0
433 431 434 0
-434 0
416 435 0
417 435 0
418 435 0
419 435 0
420 435 0
421 435 0
422 435 0
423 435 0
-436 0
435 -437 -438 0
437 -435 -438 0
438 -435 -437 0
437 435 438 0
-438 0
417 439 0
418 439 0
419 439 0
420 439 0
421 439 0
422 439 0
423 439 0
-440 0
439 -441 -442 0
441 -439 -442 0
442 -439 -441 0
441 439 442 0
-442 0
418 443 0
419 443 0
420 443 0
421 443 0
422 443 0
423 443 0
-444 0
443 -445 -446 0
445 -443 -446 0
446 -443 -445 0
445 443 446 0
-446 0
443 -447 -448 0
447 -443 -448 0
448 -443 -447 0
447 443 448 0
-448 0
443 -449 -450 0
449 -443 -450 0
450 -443 -449 0
449 443 450 0
-450 0
443 -451 -452 0
451 -443 -452 0
452 -443 -451 0
451 443 452 0
-452 0
443 -453 -454 0
453 -443 -454 0
454 -443 -453 0
453 443 454 0
-454 0
443 -455 -456 0
455 -443 -456 0
456 -443 -455 0
455 443 456 0
-456 0
457 458 0
459 458 0
460 458 0
461 458 0
462 458 0
463 458 0
464 458 0
465 458 0
466 458 0
-467 0
-468 458 -469 0
468 -458 -469 0
469 -458 -468 0
468 458 469 0
-469 0
459 470 0
460 470 0
461 470 0
462 470 0
463 470 0
464 470 0
465 470 0
466 470 0
-471 0
470 -472 -473 0
472 -470 -473 0
473 -470 -472 0
472 470 473 0
-473 0
460 474 0
461 474 0
462 474 0
463 474 0
464 474 0
465 474 0
466 474 0
-475 0
474 -476 -477 0
476 -474 -477 0
477 -474 -476 0
476 474 477 0
-477 0
461 478 0
462 478 0
463 478 0
464 478 0
465 478 0
466 478 0
-479 0
478 -480 -481 0
480 -478 -481 0
481 -478 -480 0
480 478 481 0
-481 0
462 482 0
463 482 0
464 482 0
465 482 0
466 482 0
-483 0
482 -484 -485 0
484 -482 -485 0
485 -482 -484 0
484 482 485 0
-485 0
463 486 0
464 486 0
465 486 0
466 486 0
-487 0
486 -488 -489 0
488 -486 -489 0
489 -486 -488 0
488 486 489 0
-489 0
486 -490 -491 0
490 -486 -491 0
491 -486 -490 0
490 486 491 0
-491 0
486 -492 -493 0
492 -486 -493 0
493 -486 -492 0
492 486 493 0
-493 0
486 -494 -495 0
494 -486 -495 0
495 -486 -494 0
494 486 495 0
-495 0
496 497 0
498 497 0
499 497 0
500 497 0
501 497 0
502 497 0
503 497 0
504 497 0
-505 0
-506 497 -507 0
506 -497 -507 0
507 -497 -506 0
506 497 507 0
-507 0
498 508 0
499 508 0
500 508 0
501 508 0
502 508 0
503 508 0
504 508 0
-509 0
508 -510 -511 0
510 -508 -511 0
511 -508 -510 0
510 508 511 0
-511 0
499 512 0
500 512 0
501 512 0
502 512 0
503 512 0
504 512 0
-513 0
512 -514 -515 0
514 -512 -515 0
515 -512 -514 0
514 512 515 0
-515 0
500 516 0
501 516 0
502 516 0
503 516 0
504 516 0
-517 0
516 -518 -519 0
518 -516 -519 0
519 -516 -518 0
518 516 519 0
-519 0
501 520 0
502 520 0
503 520 0
504 520 0
-521 0
520 -522 -523 0
522 -520 -523 0
523 -520 -522 0
522 520 523 0
-523 0
502 524 0
503 524 0
504 524 0
-502 -503 -504 -524 0
524 -525 -526 0
525 -524 -526 0
526 -524 -525 0
525 524 526 0
-526 0
503 527 0
504 527 0
-503 -504 -527 0
527 -528 -529 0
528 -527 -529 0
529 -527 -528 0
528 527 529 0
-529 0
527 -530 -531 0
530 -527 -531 0
531 -527 -530 0
530 527 531 0
-531 0
532 533 0
534 533 0
535 533 0
536 533 0
537 533 0
538 533 0
539 533 0
540 533 0
541 533 0
-542 0
-543 533 -544 0
543 -533 -544 0
544 -533 -543 0
543 533 544 0
-544 0
534 545 0
535 545 0
536 545 0
537 545 0
538 545 0
539 545 0
540 545 0
541 545 0
-546 0
545 -547 -548 0
547 -545 -548 0
548 -545 -547 0
547 545 548 0
-548 0
535 549 0
536 549 0
537 549 0
538 549 0
539 549 0
540 549 0
541 549 0
-550 0
549 -551 -552 0
551 -549 -552 0
552 -549 -551 0
551 549 552 0
-552 0
536 553 0
537 553 0
538 553 0
539 553 0
540 553 0
541 553 0
-554 0
553 -555 -556 0
555 -553 -556 0
556 -553 -555 0
555 553 556 0
-556 0
537 557 0
538 557 0
539 557 0
540 557 0
541 557 0
-558 0
557 -559 -560 0
559 -557 -560 0
560 -557 -559 0
559 557 560 0
-560 0
557 -561 -562 0
561 -557 -562 0
562 -557 -561 0
561 557 562 0
-562 0
557 -563 -564 0
563 -557 -564 0
564 -557 -563 0
563 557 564 0
-564 0
557 -565 -566 0
565 -557 -566 0
566 -557 -565 0
565 557 566 0
-566 0
557 -567 -568 0
567 -557 -568 0
568 -557 -567 0
567 557 568 0
-568 0
569 570 0
571 570 0
572 570 0
573 570 0
574 570 0
575 570 0
576 570 0
577 570 0
578 570 0
579 570 0
580 570 0
-581 0
-582 570 -583 0
582 -570 -583 0
583 -570 -582 0
582 570 583 0
-583 0
571 584 0
572 584 0
573 584 0
574 584 0
575 584 0
576 584 0
577 584 0
578 584 0
579 584 0
580 584 0
-585 0
584 -586 -587 0
586 -584 -587 0
587 -584 -586 0
586 584 587 0
-587 0
572 588 0
573 588 0
574 588 0
575 588 0
576 588 0
577 588 0
578 588 0
579 588 0
580 588 0
-589 0
588 -590 -591 0
590 -588 -591 0
591 -588 -590 0
590 588 591 0
-591 0
573 592 0
574 592 0
575 592 0
576 592 0
577 592 0
578 592 0
579 592 0
580 592 0
-593 0
592 -594 -595 0
594 -592 -595 0
595 -592 -594 0
594 592 595 0
-595 0
574 596 0
575 596 0
576 596 0
577 596 0
578 596 0
579 596 0
580 596 0
-597 0
596 -598 -599 0
598 -596 -599 0
599 -596 -598 0
598 596 599 0
-599 0
575 600 0
576 600 0
577 600 0
578 600 0
579 600 0
580 600 0
-601 0
600 -602 -603 0
602 -600 -603 0
603 -600 -602 0
602 600 603 0
-603 0
576 604 0
577 604 0
578 604 0
579 604 0
580 604 0
-605 0
604 -606 -607 0
606 -604 -607 0
607 -604 -606 0
606 604 607 0
-607 0
604 -608 -609 0
608 -604 -609 0
609 -604 -608 0
608 604 609 0
-609 0
604 -610 -611 0
610 -604 -611 0
611 -604 -610 0
610 604 611 0
-611 0
604 -612 -613 0
612 -604 -613 0
613 -604 -612 0
612 604 613 0
-613 0
604 -614 -615 0
614 -604 -615 0
615 -604 -614 0
614 604 615 0
-615 0
616 617 0
618 617 0
619 617 0
620 617 0
621 617 0
622 617 0
623 617 0
624 617 0
625 617 0
-626 0
-627 617 -628 0
627 -617 -628 0
628 -617 -627 0
627 617 628 0
-628 0
618 629 0
619 629 0
620 629 0
621 629 0
622 629 0
623 629 0
624 629 0
625 629 0
-630 0
629 -631 -632 0
631 -629 -632 0
632 -629 -631 0
631 629 632 0
-632 0
619 633 0
620 633 0
621 633 0
622 633 0
623 633 0
624 633 0
625 633 0
-634 0
633 -635 -636 0
635 -633 -636 0
636 -633 -635 0
635 633 636 0
-636 0
620 637 0
621 637 0
622 637 0
623 637 0
624 637 0
625 637 0
-638 0
637 -639 -640 0
639 -637 -640 0
640 -637 -639 0
639 637 640 0
-640 0
637 -641 -642 0
641 -637 -642 0
642 -637 -641 0
641 637 642 0
-642 0
637 -643 -644 0
643 -637 -644 0
644 -637 -643 0
643 637 644 0
-644 0
637 -645 -646 0
645 -637 -646 0
646 -637 -645 0
645 637 646 0
-646 0
637 -647 -648 0
647 -637 -648 0
648 -637 -647 0
647 637 648 0
-648 0
637 -649 -650 0
649 -637 -650 0
650 -637 -649 0
649 637 650 0
-650 0
651 652 0
653 652 0
654 652 0
655 652 0
656 652 0
657 652 0
658 652 0
659 652 0
660 652 0
661 652 0
662 652 0
-663 0
-664 652 -665 0
664 -652 -665 0
665 -652 -664 0
664 652 665 0
-665 0
653 666 0
654 666 0
655 666 0
656 666 0
657 666 0
658 666 0
659 666 0
660 666 0
661 666 0
662 666 0
-667 0
666 -668 -669 0
668 -666 -669 0
669 -666 -668 0
668 666 669 0
-669 0
654 670 0
655 670 0
656 670 0
657 670 0
658 670 0
659 670 0
660 670 0
661 670 0
662 670 0
-671 0
670 -672 -673 0
672 -670 -673 0
673 -670 -672 0
672 670 673 0
-673 0
655 674 0
656 674 0
657 674 0
658 674 0
659 674 0
660 674 0
661 674 0
662 674 0
-675 0
674 -676 -677 0
676 -674 -677 0
677 -674 -676 0
676 674 677 0
-677 0
656 678 0
657 678 0
658 678 0
659 678 0
660 678 0
661 678 0
662 678 0
-679 0
678 -680 -681 0
680 -678 -681 0
681 -678 -680 0
680 678 681 0
-681 0
657 682 0
658 682 0
659 682 0
660 682 0
661 682 0
662 682 0
-683 0
682 -684 -685 0
684 -682 -685 0
685 -682 -684 0
684 682 685 0
-685 0
682 -686 -687 0
686 -682 -687 0
687 -682 -686 0
686 682 687 0
-687 0
682 -688 -689 0
688 -682 -689 0
689 -682 -688 0
688 682 689 0
-689 0
682 -690 -691 0
690 -682 -691 0
691 -682 -690 0
690 682 691 0
-691 0
682 -692 -693 0
692 -682 -693 0
693 -682 -692 0
692 682 693 0
-693 0
682 -694 -695 0
694 -682 -695 0
695 -682 -694 0
694 682 695 0
-695 0
696 697 0
698 697 0
699 697 0
700 697 0
701 697 0
702 697 0
703 697 0
704 697 0
705 697 0
706 697 0
-707 0
-708 697 -709 0
708 -697 -709 0
709 -697 -708 0
708 697 709 0
-709 0
698 710 0
699 710 0
700 710 0
701 710 0
702 710 0
703 710 0
704 710 0
705 710 0
706 710 0
-711 0
710 -712 -713 0
712 -710 -713 0
713 -710 -712 0
712 710 713 0
-713 0
699 714 0
700 714 0
701 714 0
702 714 0
703 714 0
704 714 0
705 714 0
706 714 0
-715 0
714 -716 -717 0
716 -714 -717 0
717 -714 -716 0
716 714 717 0
-717 0
700 718 0
701 718 0
702 718 0
703 718 0
704 718 0
705 718 0
706 718 0
-719 0
718 -720 -721 0
720 -718 -721 0
721 -718 -720 0
720 718 721 0
-721 0
701 722 0
702 722 0
703 722 0
704 722 0
705 722 0
706 722 0
-723 0
722 -724 -725 0
724 -722 -725 0
725 -722 -724 0
724 722 725 0
-725 0
722 -726 -727 0
726 -722 -727 0
727 -722 -726 0
726 722 727 0
-727 0
722 -728 -729 0
728 -722 -729 0
729 -722 -728 0
728 722 729 0
-729 0
722 -730 -731 0
730 -722 -731 0
731 -722 -730 0
730 722 731 0
-731 0
722 -732 -733 0
732 -722 -733 0
733 -722 -732 0
732 722 733 0
-733 0
722 -734 -735 0
734 -722 -735 0
735 -722 -734 0
734 722 735 0
-735 0
736 -737 0
738 736 0
737 -738 -736 0
1 -736 0
-1 736 0
739 -740 0
741 739 0
740 -741 -739 0
3 -739 0
-3 739 0
742 -743 0
744 742 0
743 -744 -742 0
4 -742 0
-4 742 0
745 -746 0
747 745 0
746 -747 -745 0
5 -745 0
-5 745 0
748 -749 0
750 748 0
749 -750 -748 0
6 -748 0
-6 748 0
751 -752 0
753 751 0
752 -753 -751 0
7 -751 0
-7 751 0
754 -755 0
756 754 0
755 -756 -754 0
8 -754 0
-8 754 0
757 -758 0
759 757 0
758 -759 -757 0
9 -757 0
-9 757 0
760 -761 0
762 760 0
761 -762 -760 0
10 -760 0
-10 760 0
763 -764 0
765 763 0
764 -765 -763 0
11 -763 0
-11 763 0
766 -767 0
768 766 0
767 -768 -766 0
41 -766 0
-41 766 0
769 -770 0
771 769 0
770 -771 -769 0
43 -769 0
-43 769 0
772 -773 0
774 772 0
773 -774 -772 0
44 -772 0
-44 772 0
775 -776 0
777 775 0
776 -777 -775 0
45 -775 0
-45 775 0
778 -779 0
780 778 0
779 -780 -778 0
46 -778 0
-46 778 0
781 -782 0
783 781 0
782 -783 -781 0
47 -781 0
-47 781 0
784 -785 0
786 784 0
785 -786 -784 0
48 -784 0
-48 784 0
787 -788 0
789 787 0
788 -789 -787 0
49 -787 0
-49 787 0
790 -791 0
792 790 0
791 -792 -790 0
50 -790 0
-50 790 0
793 -794 0
795 793 0
794 -795 -793 0
51 -793 0
-51 793 0
796 -797 0
798 796 0
797 -798 -796 0
52 -796 0
-52 796 0
799 -800 0
801 799 0
800 -801 -799 0
86 -799 0
-86 799 0
802 -803 0
804 802 0
803 -804 -802 0
88 -802 0
-88 802 0
805 -806 0
807 805 0
806 -807 -805 0
89 -805 0
-89 805 0
808 -809 0
810 808 0
809 -810 -808 0
90 -808 0
-90 808 0
811 -812 0
813 811 0
812 -813 -811 0
91 -811 0
-91 811 0
814 -815 0
816 814 0
815 -816 -814 0
92 -814 0
-92 814 0
817 -818 0
819 817 0
818 -819 -817 0
93 -817 0
-93 817 0
820 -821 0
822 820 0
821 -822 -820 0
115 -820 0
-115 820 0
823 -824 0
825 823 0
824 -825 -823 0
117 -823 0
-117 823 0
826 -827 0
828 826 0
827 -828 -826 0
118 -826 0
-118 826 0
829 -830 0
831 829 0
830 -831 -829 0
119 -829 0
-119 829 0
832 -833 0
834 832 0
833 -834 -832 0
120 -832 0
-120 832 0
835 -836 0
837 835 0
836 -837 -835 0
121 -835 0
-121 835 0
838 -839 0
840 838 0
839 -840 -838 0
122 -838 0
-122 838 0
841 -842 0
843 841 0
842 -843 -841 0
123 -841 0
-123 841 0
844 -845 0
846 844 0
845 -846 -844 0
124 -844 0
-124 844 0
847 -848 0
849 847 0
848 -849 -847 0
125 -847 0
-125 847 0
850 -851 0
852 850 0
851 -852 -850 0
157 -850 0
-157 850 0
853 -854 0
855 853 0
854 -855 -853 0
159 -853 0
-159 853 0
856 -857 0
858 856 0
857 -858 -856 0
160 -856 0
-160 856 0
859 -860 0
861 859 0
860 -861 -859 0
161 -859 0
-161 859 0
862 -863 0
864 862 0
863 -864 -862 0
162 -862 0
-162 862 0
865 -866 0
867 865 0
866 -867 -865 0
163 -865 0
-163 865 0
868 -869 0
870 868 0
869 -870 -868 0
164 -868 0
-164 868 0
871 -872 0
873 871 0
872 -873 -871 0
165 -871 0
-165 871 0
874 -875 0
876 874 0
875 -876 -874 0
166 -874 0
-166 874 0
877 -878 0
879 877 0
878 -879 -877 0
167 -877 0
-167 877 0
880 -881 0
882 880 0
881 -882 -880 0
197 -880 0
-197 880 0
883 -884 0
885 883 0
884 -885 -883 0
199 -883 0
-199 883 0
886 -887 0
888 886 0
887 -888 -886 0
200 -886 0
-200 886 0
889 -890 0
891 889 0
890 -891 -889 0
201 -889 0
-201 889 0
892 -893 0
894 892 0
893 -894 -892 0
202 -892 0
-202 892 0
895 -896 0
897 895 0
896 -897 -895 0
203 -895 0
-203 895 0
898 -899 0
900 898 0
899 -900 -898 0
204 -898 0
-204 898 0
901 -902 0
903 901 0
902 -903 -901 0
205 -901 0
-205 901 0
904 -905 0
906 904 0
905 -906 -904 0
206 -904 0
-206 904 0
907 -908 0
909 907 0
908 -909 -907 0
207 -907 0
-207 907 0
910 -911 0
912 910 0
911 -912 -910 0
240 -910 0
-240 910 0
913 -914 0
915 913 0
914 -915 -913 0
241 -913 0
-241 913 0
916 -917 0
918 916 0
917 -918 -916 0
242 -916 0
-242 916 0
919 -920 0
921 919 0
920 -921 -919 0
243 -919 0
-243 919 0
922 -923 0
924 922 0
923 -924 -922 0
244 -922 0
-244 922 0
925 -926 0
927 925 0
926 -927 -925 0
265 -925 0
-265 925 0
928 -929 0
930 928 0
929 -930 -928 0
266 -928 0
-266 928 0
931 -932 0
933 931 0
932 -933 -931 0
267 -931 0
-267 931 0
934 -935 0
936 934 0
935 -936 -934 0
268 -934 0
-268 934 0
937 -938 0
939 937 0
938 -939 -937 0
269 -937 0
-269 937 0
940 -941 0
942 940 0
941 -942 -940 0
289 -940 0
-289 940 0
943 -944 0
945 943 0
944 -945 -943 0
291 -943 0
-291 943 0
946 -947 0
948 946 0
947 -948 -946 0
292 -946 0
-292 946 0
949 -950 0
951 949 0
950 -951 -949 0
293 -949 0
-293 949 0
952 -953 0
954 952 0
953 -954 -952 0
294 -952 0
-294 952 0
955 -956 0
957 955 0
956 -957 -955 0
295 -955 0
-295 955 0
958 -959 0
960 958 0
959 -960 -958 0
316 -958 0
-316 958 0
961 -962 0
963 961 0
962 -963 -961 0
317 -961 0
-317 961 0
964 -965 0
966 964 0
965 -966 -964 0
318 -964 0
-318 964 0
967 -968 0
969 967 0
968 -969 -967 0
330 -967 0
-330 967 0
970 -971 0
972 970 0
971 -972 -970 0
332 -970 0
-332 970 0
973 -974 0
975 973 0
974 -975 -973 0
333 -973 0
-333 973 0
976 -977 0
978 976 0
977 -978 -976 0
334 -976 0
-334 976 0
979 -980 0
981 979 0
980 -981 -979 0
335 -979 0
-335 979 0
982 -983 0
984 982 0
983 -984 -982 0
336 -982 0
-336 982 0
985 -986 0
987 985 0
986 -987 -985 0
337 -985 0
-337 985 0
988 -989 0
990 988 0
989 -990 -988 0
338 -988 0
-338 988 0
991 -992 0
993 991 0
992 -993 -991 0
339 -991 0
-339 991 0
994 -995 0
996 994 0
995 -996 -994 0
340 -994 0
-340 994 0
997 -998 0
999 997 0
998 -999 -997 0
370 -997 0
-370 997 0
1000 -1001 0
1002 1000 0
1001 -1002 -1000 0
372 -1000 0
-372 1000 0
1003 -1004 0
1005 1003 0
1004 -1005 -1003 0
373 -1003 0
-373 1003 0
1006 -1007 0
1008 1006 0
1007 -1008 -1006 0
374 -1006 0
-374 1006 0
1009 -1010 0
1011 1009 0
1010 -1011 -1009 0
375 -1009 0
-375 1009 0
1012 -1013 0
1014 1012 0
1013 -1014 -1012 0
376 -1012 0
-376 1012 0
1015 -1016 0
1017 1015 0
1016 -1017 -1015 0
377 -1015 0
-377 1015 0
1018 -1019 0
1020 1018 0
1019 -1020 -1018 0
378 -1018 0
-378 1018 0
1021 -1022 0
1023 1021 0
1022 -1023 -1021 0
379 -1021 0
-379 1021 0
1024 -1025 0
1026 1024 0
1025 -1026 -1024 0
380 -1024 0
-380 1024 0
1027 -1028 0
1029 1027 0
1028 -1029 -1027 0
412 -1027 0
-412 1027 0
1030 -1031 0
1032 1030 0
1031 -1032 -1030 0
414 -1030 0
-414 1030 0
1033 -1034 0
1035 1033 0
1034 -1035 -1033 0
415 -1033 0
-415 1033 0
1036 -1037 0
1038 1036 0
1037 -1038 -1036 0
416 -1036 0
-416 1036 0
1039 -1040 0
1041 1039 0
1040 -1041 -1039 0
417 -1039 0
-417 1039 0
1042 -1043 0
1044 1042 0
1043 -1044 -1042 0
418 -1042 0
-418 1042 0
1045 -1046 0
1047 1045 0
1046 -1047 -1045 0
419 -1045 0
-419 1045 0
1048 -1049 0
1050 1048 0
1049 -1050 -1048 0
420 -1048 0
-420 1048 0
1051 -1052 0
1053 1051 0
1052 -1053 -1051 0
421 -1051 0
-421 1051 0
1054 -1055 0
1056 1054 0
1055 -1056 -1054 0
422 -1054 0
-422 1054 0
1057 -1058 0
1059 1057 0
1058 -1059 -1057 0
423 -1057 0
-423 1057 0
1060 -1061 0
1062 1060 0
1061 -1062 -1060 0
457 -1060 0
-457 1060 0
1063 -1064 0
1065 1063 0
1064 -1065 -1063 0
459 -1063 0
-459 1063 0
1066 -1067 0
1068 1066 0
1067 -1068 -1066 0
460 -1066 0
-460 1066 0
1069 -1070 0
1071 1069 0
1070 -1071 -1069 0
461 -1069 0
-461 1069 0
1072 -1073 0
1074 1072 0
1073 -1074 -1072 0
462 -1072 0
-462 1072 0
1075 -1076 0
1077 1075 0
1076 -1077 -1075 0
463 -1075 0
-463 1075 0
1078 -1079 0
1080 1078 0
1079 -1080 -1078 0
464 -1078 0
-464 1078 0
1081 -1082 0
1083 1081 0
1082 -1083 -1081 0
465 -1081 0
-465 1081 0
1084 -1085 0
1086 1084 0
1085 -1086 -1084 0
466 -1084 0
-466 1084 0
1087 -1088 0
1089 1087 0
1088 -1089 -1087 0
496 -1087 0
-496 1087 0
1090 -1091 0
1092 1090 0
1091 -1092 -1090 0
498 -1090 0
-498 1090 0
1093 -1094 0
1095 1093 0
1094 -1095 -1093 0
499 -1093 0
-499 1093 0
1096 -1097 0
1098 1096 0
1097 -1098 -1096 0
500 -1096 0
-500 1096 0
1099 -1100 0
1101 1099 0
1100 -1101 -1099 0
501 -1099 0
-501 1099 0
1102 -1103 0
1104 1102 0
1103 -1104 -1102 0
502 -1102 0
-502 1102 0
1105 -1106 0
1107 1105 0
1106 -1107 -1105 0
503 -1105 0
-503 1105 0
1108 -1109 0
1110 1108 0
1109 -1110 -1108 0
504 -1108 0
-504 1108 0
1111 -1112 0
1113 1111 0
1112 -1113 -1111 0
532 -1111 0
-532 1111 0
1114 -1115 0
1116 1114 0
1115 -1116 -1114 0
534 -1114 0
-534 1114 0
1117 -1118 0
1119 1117 0
1118 -1119 -1117 0
535 -1117 0
-535 1117 0
1120 -1121 0
1122 1120 0
1121 -1122 -1120 0
536 -1120 0
-536 1120 0
1123 -1124 0
1125 1123 0
1124 -1125 -1123 0
537 -1123 0
-537 1123 0
1126 -1127 0
1128 1126 0
1127 -1128 -1126 0
538 -1126 0
-538 1126 0
1129 -1130 0
1131 1129 0
1130 -1131 -1129 0
539 -1129 0
-539 1129 0
1132 -1133 0
1134 1132 0
1133 -1134 -1132 0
540 -1132 0
-540 1132 0
1135 -1136 0
1137 1135 0
1136 -1137 -1135 0
541 -1135 0
-541 1135 0
1138 -1139 0
1140 1138 0
1139 -1140 -1138 0
569 -1138 0
-569 1138 0
1141 -1142 0
1143 1141 0
1142 -1143 -1141 0
571 -1141 0
-571 1141 0
1144 -1145 0
1146 1144 0
1145 -1146 -1144 0
572 -1144 0
-572 1144 0
1147 -1148 0
1149 1147 0
1148 -1149 -1147 0
573 -1147 0
-573 1147 0
1150 -1151 0
1152 1150 0
1151 -1152 -1150 0
574 -1150 0
-574 1150 0
1153 -1154 0
1155 1153 0
1154 -1155 -1153 0
575 -1153 0
-575 1153 0
1156 -1157 0
1158 1156 0
1157 -1158 -1156 0
576 -1156 0
-576 1156 0
1159 -1160 0
1161 1159 0
1160 -1161 -1159 0
577 -1159 0
-577 1159 0
1162 -1163 0
1164 1162 0
1163 -1164 -1162 0
578 -1162 0
-578 1162 0
1165 -1166 0
1167 1165 0
1166 -1167 -1165 0
579 -1165 0
-579 1165 0
1168 -1169 0
1170 1168 0
1169 -1170 -1168 0
580 -1168 0
-580 1168 0
1171 -1172 0
1173 1171 0
1172 -1173 -1171 0
616 -1171 0
-616 1171 0
1174 -1175 0
1176 1174 0
1175 -1176 -1174 0
618 -1174 0
-618 1174 0
1177 -1178 0
1179 1177 0
1178 -1179 -1177 0
619 -1177 0
-619 1177 0
1180 -1181 0
1182 1180 0
1181 -1182 -1180 0
620 -1180 0
-620 1180 0
1183 -1184 0
1185 1183 0
1184 -1185 -1183 0
621 -1183 0
-621 1183 0
1186 -1187 0
1188 1186 0
1187 -1188 -1186 0
622 -1186 0
-622 1186 0
1189 -1190 0
1191 1189 0
1190 -1191 -1189 0
623 -1189 0
-623 1189 0
1192 -1193 0
1194 1192 0
1193 -1194 -1192 0
624 -1192 0
-624 1192 0
1195 -1196 0
1197 1195 0
1196 -1197 -1195 0
625 -1195 0
-625 1195 0
1198 -1199 0
1200 1198 0
1199 -1200 -1198 0
651 -1198 0
-651 1198 0
1201 -1202 0
1203 1201 0
1202 -1203 -1201 0
653 -1201 0
-653 1201 0
1204 -1205 0
1206 1204 0
1205 -1206 -1204 0
654 -1204 0
-654 1204 0
1207 -1208 0
1209 1207 0
1208 -1209 -1207 0
655 -1207 0
-655 1207 0
1210 -1211 0
1212 1210 0
1211 -1212 -1210 0
656 -1210 0
-656 1210 0
1213 -1214 0
1215 1213 0
1214 -1215 -1213 0
657 -1213 0
-657 1213 0
1216 -1217 0
1218 1216 0
1217 -1218 -1216 0
658 -1216 0
-658 1216 0
1219 -1220 0
1221 1219 0
1220 -1221 -1219 0
659 -1219 0
-659 1219 0
1222 -1223 0
1224 1222 0
1223 -1224 -1222 0
660 -1222 0
-660 1222 0
1225 -1226 0
1227 1225 0
1226 -1227 -1225 0
661 -1225 0
-661 1225 0
1228 -1229 0
1230 1228 0
1229 -1230 -1228 0
662 -1228 0
-662 1228 0
1231 -1232 0
1233 1231 0
1232 -1233 -1231 0
696 -1231 0
-696 1231 0
1234 -1235 0
1236 1234 0
1235 -1236 -1234 0
698 -1234 0
-698 1234 0
1237 -1238 0
1239 1237 0
1238 -1239 -1237 0
699 -1237 0
-699 1237 0
1240 -1241 0
1242 1240 0
1241 -1242 -1240 0
700 -1240 0
-700 1240 0
1243 -1244 0
1245 1243 0
1244 -1245 -1243 0
701 -1243 0
-701 1243 0
1246 -1247 0
1248 1246 0
1247 -1248 -1246 0
702 -1246 0
-702 1246 0
1249 -1250 0
1251 1249 0
1250 -1251 -1249 0
703 -1249 0
-703 1249 0
1252 -1253 0
1254 1252 0
1253 -1254 -1252 0
704 -1252 0
-704 1252 0
1255 -1256 0
1257 1255 0
1256 -1257 -1255 0
705 -1255 0
-705 1255 0
1258 -1259 0
1260 1258 0
1259 -1260 -1258 0
706 -1258 0
-706 1258 0
-738 0
-741 0
-744 0
747 0
-750 0
753 0
756 0
759 0
762 0
-765 0
-768 0
-771 0
-774 0
-777 0
780 0
783 0
786 0
-789 0
-792 0
-795 0
-798 0
-801 0
-804 0
-807 0
810 0
-813 0
816 0
819 0
-822 0
-825 0
828 0
-831 0
-834 0
-837 0
-840 0
-843 0
846 0
849 0
-852 0
-855 0
-858 0
861 0
864 0
-867 0
870 0
-873 0
-876 0
-879 0
-882 0
-885 0
888 0
891 0
894 0
-897 0
900 0
-903 0
-906 0
-909 0
-912 0
915 0
-918 0
-921 0
924 0
927 0
-930 0
933 0
936 0
939 0
-942 0
-945 0
-948 0
-951 0
954 0
-957 0
960 0
-963 0
966 0
969 0
-972 0
975 0
-978 0
-981 0
984 0
987 0
990 0
993 0
-996 0
999 0
-1002 0
-1005 0
-1008 0
1011 0
-1014 0
-1017 0
1020 0
-1023 0
1026 0
1029 0
1032 0
1035 0
1038 0
-1041 0
1044 0
1047 0
1050 0
1053 0
-1056 0
1059 0
-1062 0
1065 0
1068 0
1071 0
1074 0
-1077 0
1080 0
1083 0
-1086 0
-1089 0
-1092 0
1095 0
-1098 0
1101 0
-1104 0
-1107 0
1110 0
1113 0
1116 0
1119 0
1122 0
-1125 0
-1128 0
-1131 0
1134 0
-1137 0
-1140 0
1143 0
1146 0
1149 0
1152 0
-1155 0
1158 0
1161 0
1164 0
1167 0
1170 0
-1173 0
-1176 0
1179 0
-1182 0
1185 0
-1188 0
1191 0
-1194 0
-1197 0
1200 0
-1203 0
-1206 0
1209 0
1212 0
-1215 0
-1218 0
-1221 0
1224 0
-1227 0
-1230 0
-1233 0
1236 0
1239 0
-1242 0
-1245 0
1248 0
1251 0
-1254 0
-1257 0
1260 0
13 0
54 0
95 0
127 0
169 0
209 0
246 0
271 0
297 0
320 0
-342 0
-382 0
-425 0
-468 0
-506 0
-543 0
-582 0
-627 0
-664 0
-708 0
